# Objective value = 2.6249999999999897e+01
B0(2) 0
B1(2) 0
B2(2) 0
B3(2) 0
B4(2) 0
B5(2) 0
B6(2) 0
B7(2) 0
B8(2) 0
B9(2) 0
B10(2) 0
B11(2) 0
B12(2) 0
B13(2) 0
B14(2) 0
B15(2) 0
B16(2) 0
B17(2) 0
B18(2) 0
B19(2) 0
B20(2) 0
B21(2) 0
B22(2) 0
B23(2) 0
B24(2) 0
B25(2) 0
B26(2) 0
B27(2) 0
B28(2) 0
B29(2) 0
B30(2) 0
B31(2) 0
B32(2) 0
B33(2) 0
B34(2) 0
B35(2) 0
B36(2) 0
B37(2) 0
B38(2) 0
B39(2) 0
B40(2) 0
B41(2) 0
B42(2) 0
B43(2) 0
B44(2) 0
B45(2) 0
B46(2) 0
B47(2) 0
B48(2) 0
B49(2) 0
B50(2) 0
B51(2) 0
B52(2) 0
B53(2) 0
B54(2) 0
B55(2) 0
B56(2) 0
B57(2) 0
B58(2) 0
B59(2) 0
B60(2) 0
B61(2) 0
B62(2) 0
B63(2) 0
B64(2) 0
B65(2) 0
B66(2) 0
B67(2) 0
B68(2) 0
B69(2) 0
B70(2) 0
B71(2) 0
B72(2) 0
B73(2) 0
B74(2) 0
B75(2) 0
B76(2) 0
B77(2) 0
B78(2) 0
B79(2) 0
B80(2) 0
B81(2) 0
B82(2) 0
B83(2) 0
B84(2) 0
B85(2) 0
B86(2) 0
B87(2) 0
B88(2) 0
B89(2) 0
B90(2) 0
B91(2) 0
B92(2) 0
B93(2) 0
B94(2) 0
B95(2) 0
B96(2) 0
B97(2) 0
B98(2) 0
B99(2) 0
B100(2) 0
B101(2) 0
B102(2) 0
B103(2) 0
B104(2) 0
B105(2) 0
B106(2) 0
B107(2) 0
B108(2) 0
B109(2) 0
B110(2) 0
B111(2) 0
B112(2) 1
B113(2) 0
B114(2) 0
B115(2) 0
B116(2) 0
B117(2) 1
B118(2) 0
B119(2) 0
B120(2) 0
B121(2) 1
B122(2) 0
B123(2) 0
B124(2) 0
B125(2) 1
B126(2) 0
B127(2) 0
B128(2) 0
B129(2) 1
B130(2) 0
B131(2) 0
B132(2) 1
B133(2) 1
B134(2) 0
B135(2) 0
B136(2) 0
B137(2) 0
B138(2) 1
B139(2) 0
B140(2) 0
B141(2) 0
B142(2) 0
B143(2) 0
B144(2) 0
B145(2) 0
B146(2) 0
B147(2) 0
B148(2) 0
B149(2) 0
B150(2) 0
B151(2) 0
B152(2) 0
B153(2) 0
B154(2) 0
B155(2) 1
B156(2) 0
B157(2) 0
B158(2) 0
B159(2) 0
B160(2) 0
B161(2) 0
B162(2) 0
B163(2) 0
B164(2) 0
B165(2) 1
B166(2) 0
B167(2) 0
B168(2) 0
B169(2) 0
B170(2) 0
B171(2) 0
B172(2) 1
B173(2) 0
B174(2) 1
B175(2) 0
B176(2) 1
B177(2) 0
B178(2) 0
B179(2) 0
B180(2) 0
B181(2) 1
B182(2) 0
B183(2) 0
B184(2) 0
B185(2) 0
B186(2) 0
B187(2) 0
B188(2) 0
B189(2) 0
B190(2) 0
B191(2) 0
B192(2) 0
B193(2) 0
B194(2) 0
B195(2) 0
B196(2) 0
B197(2) 0
B198(2) 1
B199(2) 0
B200(2) 0
B201(2) 0
B202(2) 0
B203(2) 0
B204(2) 0
B205(2) 0
B206(2) 0
B207(2) 0
B208(2) 1
B209(2) 0
B210(2) 0
B211(2) 0
B212(2) 0
B213(2) 0
B214(2) 0
B215(2) 1
B216(2) 1
B217(2) 1
B218(2) 0
B219(2) 1
B220(2) 0
B221(2) 1
B222(2) 0
B223(2) 0
B224(2) 1
B225(2) 0
B226(2) 0
B227(2) 0
B228(2) 0
B229(2) 0
B230(2) 0
B231(2) 0
B232(2) 0
B233(2) 0
B234(2) 0
B235(2) 0
B236(2) 0
B237(2) 0
B238(2) 0
B239(2) 0
B240(2) 0
B241(2) 0
B242(2) 0
B243(2) 0
B244(2) 0
B245(2) 0
B246(2) 0
B247(2) 0
B248(2) 0
B249(2) 0
B250(2) 1
B251(2) 0
B252(2) 0
B253(2) 0
B254(2) 1
B255(2) 0
B256(2) 0
B257(2) 0
B258(2) 0
B259(2) 0
B260(2) 0
B261(2) 0
B262(2) 0
B263(2) 0
B264(2) 0
B265(2) 0
B266(2) 0
B267(2) 0
B268(2) 0
B269(2) 0
B270(2) 0
B271(2) 0
B272(2) 0
B273(2) 0
B274(2) 0
B275(2) 0
B276(2) 0
B277(2) 0
B278(2) 0
B279(2) 0
B280(2) 0
B281(2) 0
B282(2) 0
B283(2) 0
B284(2) 0
B285(2) 0
B286(2) 0
B287(2) 0
B288(2) 1
B289(2) 0
B290(2) 0
B291(2) 0
B292(2) 0
B293(2) 0
B294(2) 0
B295(2) 0
B296(2) 0
B297(2) 0
B298(2) 1
B299(2) 0
B300(2) 1
B301(2) 0
B302(2) 0
B303(2) 0
B304(2) 0
B305(2) 0
B306(2) 0
B307(2) 0
B308(2) 0
B309(2) 0
B310(2) 0
B311(2) 0
B312(2) 1
B313(2) 0
B314(2) 0
B315(2) 0
B316(2) 0
B317(2) 0
B318(2) 0
B319(2) 0
B320(2) 0
B321(2) 0
B322(2) 0
B323(2) 0
B324(2) 1
B325(2) 0
B326(2) 1
B327(2) 0
B328(2) 0
B329(2) 0
B330(2) 0
B331(2) 1
B332(2) 0
B333(2) 0
B334(2) 1
B335(2) 0
B336(2) 0
B337(2) 0
B338(2) 0
B339(2) 0
B340(2) 0
B341(2) 0
B342(2) 0
B343(2) 0
B344(2) 0
B345(2) 1
B346(2) 1
B347(2) 0
B348(2) 1
B349(2) 0
B350(2) 0
B351(2) 0
B352(2) 0
B353(2) 0
B354(2) 0
B355(2) 0
B356(2) 1
B357(2) 0
B358(2) 0
B359(2) 1
B360(2) 0
B361(2) 0
B362(2) 0
B363(2) 0
B364(2) 0
B365(2) 0
B366(2) 0
B367(2) 0
B368(2) 1
B369(2) 0
B370(2) 0
B371(2) 0
B372(2) 0
B373(2) 0
B374(2) 1
B375(2) 0
B376(2) 0
B377(2) 0
B378(2) 0
B379(2) 0
B380(2) 1
B381(2) 0
B382(2) 1
B383(2) 0
B384(2) 0
B385(2) 0
B386(2) 0
B387(2) 0
B388(2) 0
B389(2) 0
B390(2) 0
B391(2) 0
B392(2) 0
B393(2) 0
B394(2) 0
B395(2) 0
B396(2) 0
B397(2) 0
B398(2) 0
B399(2) 0
B400(2) 0
B401(2) 0
B402(2) 0
B403(2) 1
B404(2) 0
B405(2) 0
B406(2) 1
B407(2) 0
B408(2) 1
B409(2) 0
B410(2) 0
B411(2) 0
B412(2) 1
B413(2) 1
B414(2) 0
B415(2) 0
B416(2) 0
B417(2) 0
B418(2) 0
B419(2) 1
B420(2) 0
B421(2) 0
B422(2) 0
B423(2) 0
B424(2) 0
B425(2) 0
B426(2) 0
B427(2) 0
B428(2) 0
B429(2) 0
B430(2) 0
B431(2) 0
B432(2) 0
B433(2) 0
B434(2) 0
B435(2) 0
B436(2) 0
B437(2) 1
B438(2) 0
B439(2) 0
B440(2) 1
B441(2) 0
B442(2) 1
B443(2) 0
B444(2) 0
B445(2) 0
B446(2) 1
B447(2) 1
B448(2) 1
B449(2) 0
B450(2) 0
B451(2) 0
B452(2) 0
B453(2) 1
B454(2) 0
B455(2) 0
B456(2) 1
B457(2) 0
B458(2) 0
B459(2) 0
B460(2) 0
B461(2) 0
B462(2) 0
B463(2) 0
B464(2) 0
B465(2) 0
B466(2) 0
B467(2) 0
B468(2) 0
B469(2) 1
B470(2) 0
B471(2) 0
B472(2) 1
B473(2) 0
B474(2) 0
B475(2) 0
B476(2) 1
B477(2) 1
B478(2) 0
B479(2) 0
B480(2) 0
B481(2) 1
B482(2) 0
B483(2) 0
B484(2) 0
B485(2) 1
B486(2) 0
B487(2) 0
B488(2) 0
B489(2) 0
B490(2) 1
B491(2) 0
B492(2) 0
B493(2) 0
B494(2) 0
B495(2) 0
B496(2) 0
B497(2) 0
B498(2) 0
B499(2) 1
B500(2) 0
B501(2) 1
B502(2) 1
B503(2) 1
B504(2) 1
B505(2) 0
B506(2) 0
B507(2) 1
B508(2) 0
B509(2) 0
B510(2) 1
B511(2) 1
B512(2) 0
B513(2) 0
B514(2) 0
B515(2) 0
B516(2) 0
B517(2) 1
B518(2) 0
B519(2) 0
B520(2) 0
B521(2) 0
B522(2) 0
B523(2) 0
B524(2) 0
B525(2) 0
B526(2) 0
B527(2) 0
B528(2) 0
B529(2) 0
B530(2) 0
B531(2) 0
B532(2) 1
B533(2) 0
B534(2) 0
B535(2) 0
B536(2) 0
B537(2) 0
B538(2) 1
B539(2) 0
B540(2) 1
B541(2) 0
B542(2) 0
B543(2) 0
B544(2) 0
B545(2) 0
B546(2) 0
B547(2) 0
B548(2) 0
B549(2) 0
B550(2) 0
B551(2) 0
B552(2) 0
B553(2) 0
B554(2) 0
B555(2) 1
B556(2) 1
B557(2) 1
B558(2) 0
B559(2) 0
B560(2) 0
B561(2) 0
B562(2) 0
B563(2) 0
B564(2) 0
B565(2) 0
B566(2) 0
B567(2) 0
B568(2) 0
B569(2) 0
B570(2) 0
B571(2) 0
B572(2) 0
B573(2) 0
B574(2) 0
B575(2) 0
B576(2) 1
B577(2) 1
B578(2) 1
B579(2) 0
B580(2) 1
B581(2) 0
B582(2) 0
B583(2) 0
B584(2) 0
B585(2) 0
B586(2) 0
B587(2) 0
B588(2) 0
B589(2) 0
B590(2) 0
B591(2) 0
B592(2) 0
B593(2) 0
B594(2) 1
B595(2) 0
B596(2) 1
B597(2) 0
B598(2) 0
B599(2) 0
B600(2) 1
B601(2) 0
B602(2) 0
B603(2) 0
B604(2) 0
B605(2) 0
B606(2) 0
B607(2) 0
B608(2) 0
B609(2) 0
B610(2) 0
B611(2) 0
B612(2) 0
B613(2) 0
B614(2) 0
B615(2) 0
B616(2) 1
B617(2) 0
B618(2) 0
B619(2) 0
B620(2) 0
B621(2) 0
B622(2) 0
B623(2) 0
B624(2) 0
B625(2) 0
B626(2) 0
B627(2) 0
B628(2) 0
B629(2) 0
B630(2) 0
B631(2) 0
B632(2) 0
B633(2) 0
B634(2) 0
B635(2) 0
B636(2) 1
B637(2) 0
B638(2) 0
B639(2) 0
B640(2) 0
B641(2) 0
B642(2) 0
B643(2) 0
B644(2) 0
B645(2) 1
B646(2) 0
B647(2) 1
B648(2) 0
B649(2) 0
B650(2) 0
B651(2) 0
B652(2) 0
B653(2) 0
B654(2) 0
B655(2) 0
B656(2) 0
B657(2) 0
B658(2) 0
B659(2) 0
B660(2) 0
B661(2) 0
B662(2) 0
B663(2) 0
B664(2) 0
B665(2) 0
B666(2) 0
B667(2) 0
B668(2) 0
B669(2) 0
B670(2) 1
B671(2) 0
B672(2) 0
B673(2) 1
B674(2) 1
B675(2) 1
B676(2) 1
B677(2) 0
B678(2) 0
B679(2) 1
B680(2) 1
B681(2) 0
B682(2) 0
B683(2) 0
B684(2) 0
B685(2) 0
B686(2) 0
B687(2) 0
B688(2) 0
B689(2) 0
B690(2) 0
B691(2) 0
B692(2) 0
B693(2) 0
B694(2) 0
B695(2) 0
B696(2) 0
B697(2) 0
B698(2) 0
B699(2) 0
B700(2) 1
B701(2) 1
B702(2) 0
B703(2) 0
B704(2) 0
B705(2) 0
B706(2) 0
B707(2) 0
B708(2) 0
B709(2) 0
B710(2) 1
B711(2) 0
B712(2) 1
B713(2) 0
B714(2) 0
B715(2) 1
B716(2) 0
B717(2) 0
B718(2) 0
B719(2) 0
B720(2) 0
B721(2) 0
B722(2) 0
B723(2) 0
B724(2) 0
B725(2) 0
B726(2) 0
B727(2) 0
B728(2) 0
B729(2) 0
B730(2) 0
B731(2) 0
B732(2) 0
B733(2) 0
B734(2) 0
B735(2) 0
B736(2) 0
B737(2) 0
B738(2) 0
B739(2) 0
B740(2) 0
B741(2) 0
B742(2) 0
B743(2) 0
B744(2) 0
B745(2) 0
B746(2) 0
B747(2) 0
B748(2) 0
B749(2) 0
B750(2) 0
B751(2) 0
B752(2) 0
B753(2) 0
B754(2) 0
B755(2) 0
B756(2) 0
B757(2) 0
B758(2) 0
B759(2) 0
B760(2) 0
B761(2) 0
B762(2) 0
B763(2) 0
B764(2) 0
B765(2) 0
B766(2) 0
B767(2) 0
B768(2) 0
B769(2) 0
B770(2) 0
B771(2) 0
B772(2) 0
B773(2) 0
B774(2) 0
B775(2) 0
B776(2) 0
B777(2) 0
B778(2) 0
B779(2) 0
B780(2) 0
B781(2) 0
B782(2) 0
B783(2) 0
B784(2) 0
B785(2) 0
B786(2) 0
B787(2) 0
B788(2) 0
B789(2) 0
B790(2) 0
B791(2) 0
B792(2) 0
B793(2) 0
B794(2) 0
B795(2) 1
B796(3) 0
B797(6) 0
B798(2) 1
B799(6) 1
B800(3) 0
B801(10) 0
B802(3) 1
B803(10) 0
B804(3) 1
B805(10) 0
B806(3) 1
B807(10) 1
B808(3) 0
B809(4) 0
B810(10) 0
B811(3) 1
B812(10) 0
B813(6) 0
B814(3) 1
B815(10) 0
B816(3) 1
B817(10) 0
B818(3) 1
B819(10) 0
B820(3) 1
B821(10) 0
B822(3) 1
B823(3) 0
B824(10) 0
B825(3) 1
B826(10) 0
B827(3) 1
B828(10) 0
B829(3) 1
B830(10) 0
B831(3) 1
B832(6) 0
B833(3) 1
B834(10) 0
B835(3) 1
B836(10) 0
B837(3) 1
B838(10) 0
B839(3) 1
B840(8) 0
B841(10) 0
B842(3) 1
B843(10) 0
B844(3) 1
B845(8) 1
B846(10) 1
B847(3) 0
B848(8) 0
B849(10) 0
B850(3) 1
B851(8) 1
B852(10) 1
B853(3) 0
B854(6) 0
B855(3) 1
B856(10) 0
B857(3) 1
B858(10) 0
B859(3) 1
B860(10) 0
B861(3) 1
B862(10) 0
B863(3) 1
B864(10) 0
B865(3) 1
B866(10) 1
B867(3) 0
B868(10) 0
B869(3) 1
B870(10) 1
B871(3) 0
B872(6) 0
B873(3) 1
B874(12) 0
B875(3) 1
B876(12) 0
B877(3) 1
B878(12) 0
B879(3) 1
B880(12) 0
B881(3) 1
B882(12) 0
B883(3) 1
B884(12) 1
B885(3) 0
B886(12) 0
B887(3) 1
B888(12) 1
B889(3) 0
B890(6) 0
B891(3) 1
B892(16) 0
B893(3) 1
B894(16) 0
B895(3) 1
B896(16) 0
B897(3) 1
B898(16) 0
B899(3) 1
B900(10) 0
B901(14) 0
B902(3) 1
B903(16) 0
B904(3) 1
B905(16) 1
B906(3) 0
B907(10) 0
B908(14) 0
B909(3) 1
B910(16) 0
B911(3) 1
B912(10) 0
B913(14) 0
B914(3) 1
B915(16) 1
B916(3) 0
B917(10) 0
B918(14) 0
B919(3) 1
B920(10) 0
B921(14) 0
B922(3) 1
B923(3) 1
B924(26) 1
B925(3) 0
B926(10) 0
B927(3) 1
B928(10) 0
B929(3) 1
B930(10) 0
B931(3) 1
B932(10) 0
B933(3) 1
B934(14) 1
B935(3) 0
B936(10) 0
B937(3) 1
B938(10) 1
B939(3) 0
B940(14) 1
B941(3) 0
B942(10) 0
B943(3) 1
B944(14) 1
B945(3) 0
B946(10) 1
B947(3) 0
B948(14) 1
B949(3) 0
B950(6) 1
B951(3) 0
B952(14) 1
B953(3) 0
B954(8) 0
B955(3) 1
B956(8) 1
B957(3) 0
B958(10) 0
B959(3) 1
B960(10) 0
B961(3) 1
B962(10) 0
B963(3) 1
B964(10) 0
B965(3) 1
B966(24) 1
B967(3) 0
B968(10) 0
B969(3) 1
B970(10) 1
B971(3) 0
B972(3) 0
B973(10) 0
B974(3) 1
B975(3) 0
B976(10) 1
B977(3) 0
B978(3) 0
B979(8) 1
B980(3) 0
B981(3) 0
B982(8) 0
B983(3) 1
B984(8) 1
B985(3) 0
B986(14) 0
B987(3) 1
B988(14) 0
B989(3) 1
B990(14) 0
B991(3) 1
B992(14) 0
B993(3) 1
B994(28) 1
B995(3) 0
B996(14) 0
B997(3) 1
B998(14) 1
B999(3) 0
B1000(3) 0
B1001(14) 0
B1002(3) 1
B1003(3) 0
B1004(14) 1
B1005(3) 0
B1006(3) 0
B1007(8) 1
B1008(3) 0
B1009(3) 0
B1010(6) 0
B1011(3) 1
B1012(50) 1
B1013(3) 0
B1014(16) 0
B1015(3) 1
B1016(16) 0
B1017(3) 1
B1018(16) 0
B1019(3) 1
B1020(54) 0
B1021(16) 0
B1022(3) 1
B1023(16) 0
B1024(3) 0
B1025(12) 0
B1026(16) 0
B1027(3) 1
B1028(12) 0
B1029(16) 0
B1030(3) 1
B1031(16) 0
B1032(3) 1
B1033(16) 1
B1034(3) 0
B1035(16) 0
B1036(3) 0
B1037(12) 1
B1038(16) 1
B1039(3) 0
B1040(12) 1
B1041(16) 1
B1042(3) 0
B1043(16) 0
B1044(3) 1
B1045(16) 0
B1046(3) 0
B1047(12) 0
B1048(16) 0
B1049(3) 1
B1050(12) 0
B1051(16) 0
B1052(3) 1
B1053(16) 1
B1054(3) 0
B1055(16) 0
B1056(3) 0
B1057(12) 1
B1058(16) 1
B1059(3) 0
B1060(12) 1
B1061(16) 1
B1062(3) 0
B1063(3) 0
B1064(16) 0
B1065(3) 0
B1066(12) 1
B1067(16) 1
B1068(3) 0
B1069(12) 0
B1070(16) 0
B1071(3) 1
B1072(16) 1
B1073(3) 0
B1074(16) 1
B1075(3) 0
B1076(12) 0
B1077(16) 0
B1078(3) 1
B1079(22) 1
B1080(3) 0
B1081(22) 1
B1082(3) 0
B1083(22) 1
B1084(3) 0
B1085(22) 0
B1086(3) 0
B1087(22) 0
B1088(3) 1
B1089(22) 1
B1090(3) 0
B1091(22) 1
B1092(3) 0
B1093(22) 1
B1094(3) 0
B1095(22) 1
B1096(3) 0
B1097(22) 0
B1098(3) 1
B1099(22) 0
B1100(3) 1
B1101(22) 0
B1102(3) 1
B1103(22) 0
B1104(3) 1
B1105(22) 0
B1106(3) 1
B1107(22) 0
B1108(3) 1
B1109(22) 0
B1110(3) 1
B1111(22) 0
B1112(3) 1
B1113(22) 0
B1114(3) 1
B1115(22) 0
B1116(3) 1
B1117(22) 1
B1118(3) 0
B1119(22) 1
B1120(3) 0
B1121(22) 1
B1122(3) 0
B1123(22) 1
B1124(3) 0
B1125(22) 0
B1126(3) 1
B1127(22) 0
B1128(3) 1
B1129(22) 0
B1130(3) 1
B1131(22) 0
B1132(3) 1
B1133(22) 0
B1134(3) 1
B1135(22) 0
B1136(3) 1
B1137(22) 1
B1138(3) 0
B1139(22) 1
B1140(3) 0
B1141(22) 1
B1142(3) 0
B1143(22) 1
B1144(3) 0
B1145(22) 1
B1146(3) 0
B1147(22) 1
B1148(3) 0
B1149(22) 1
B1150(3) 0
B1151(22) 1
B1152(3) 0
B1153(22) 1
B1154(3) 0
B1155(22) 1
B1156(3) 0
B1157(22) 1
B1158(3) 0
B1159(22) 1
B1160(3) 0
B1161(22) 0
B1162(3) 0
B1163(22) 0
B1164(3) 1
B1165(3) 0
B1166(3) 0
B1167(3) 0
B1168(8) 1
B1169(3) 0
B1170(8) 0
B1171(3) 1
B1172(3) 0
B1173(8) 1
B1174(3) 0
B1175(3) 0
B1176(3) 0
B1177(12) 0
B1178(3) 1
B1179(12) 0
B1180(3) 1
B1181(3) 1
B1182(3) 1
B1183(14) 0
B1184(3) 1
B1185(3) 1
B1186(14) 0
B1187(3) 1
B1188(14) 0
B1189(3) 1
B1190(3) 1
B1191(3) 1
B1192(14) 1
B1193(3) 0
B1194(3) 0
B1195(14) 1
B1196(3) 0
B1197(14) 1
B1198(3) 0
B1199(3) 1
B1200(14) 0
B1201(3) 1
B1202(3) 1
B1203(14) 0
B1204(3) 1
B1205(14) 0
B1206(3) 1
B1207(8) 0
B1208(3) 1
B1209(3) 0
B1210(8) 0
B1211(3) 0
B1212(3) 0
B1213(3) 0
B1214(26) 1
B1215(3) 0
B1216(8) 1
B1217(3) 0
B1218(26) 1
B1219(3) 0
B1220(26) 1
B1221(3) 0
B1222(3) 0
B1223(14) 0
B1224(3) 0
B1225(14) 0
B1226(3) 0
B1227(3) 0
B1228(3) 0
B1229(14) 0
B1230(3) 1
B1231(14) 0
B1232(3) 0
B1233(20) 0
B1234(3) 1
B1235(20) 1
B1236(3) 0
B1237(20) 0
B1238(3) 0
B1239(20) 1
B1240(3) 0
B1241(20) 1
B1242(3) 0
B1243(16) 0
B1244(3) 1
B1245(16) 0
B1246(3) 1
B1247(20) 0
B1248(3) 1
B1249(20) 0
B1250(3) 1
B1251(20) 0
B1252(3) 1
B1253(20) 0
B1254(3) 1
B1255(20) 0
B1256(3) 1
B1257(20) 0
B1258(3) 1
B1259(20) 1
B1260(3) 0
B1261(20) 0
B1262(3) 1
B1263(20) 1
B1264(3) 0
B1265(20) 1
B1266(3) 0
B1267(20) 0
B1268(3) 1
B1269(20) 0
B1270(3) 1
B1271(20) 0
B1272(3) 1
B1273(20) 0
B1274(3) 1
B1275(20) 0
B1276(3) 1
B1277(20) 0
B1278(3) 1
B1279(20) 1
B1280(3) 0
B1281(20) 0
B1282(3) 1
B1283(20) 1
B1284(3) 0
B1285(20) 1
B1286(3) 0
B1287(20) 1
B1288(3) 0
B1289(20) 0
B1290(3) 0
B1291(20) 1
B1292(3) 0
B1293(20) 1
B1294(3) 0
B1295(20) 0
B1296(3) 1
B1297(20) 1
B1298(3) 0
B1299(20) 0
B1300(3) 1
B1301(20) 1
B1302(3) 0
B1303(20) 1
B1304(3) 0
B1305(20) 0
B1306(3) 1
B1307(14) 0
B1308(3) 1
B1309(3) 1
B1310(20) 1
B1311(3) 0
B1312(20) 0
B1313(3) 1
B1314(20) 1
B1315(3) 0
B1316(20) 1
B1317(3) 0
B1318(16) 0
B1319(3) 1
B1320(16) 0
B1321(3) 1
B1322(3) 1
B1323(20) 0
B1324(3) 1
B1325(20) 0
B1326(3) 1
B1327(20) 0
B1328(3) 1
B1329(20) 0
B1330(3) 1
B1331(3) 1
B1332(20) 1
B1333(3) 0
B1334(20) 0
B1335(3) 1
B1336(20) 1
B1337(3) 0
B1338(20) 1
B1339(3) 0
B1340(3) 1
B1341(20) 0
B1342(3) 1
B1343(20) 0
B1344(3) 1
B1345(20) 0
B1346(3) 1
B1347(20) 0
B1348(3) 1
B1349(38) 0
B1350(3) 1
B1351(20) 1
B1352(3) 0
B1353(20) 0
B1354(3) 1
B1355(20) 1
B1356(3) 0
B1357(20) 1
B1358(3) 0
B1359(3) 0
B1360(3) 0
B1361(3) 0
B1362(3) 0
B1363(20) 0
B1364(3) 1
B1365(20) 1
B1366(3) 0
B1367(20) 0
B1368(3) 1
B1369(20) 1
B1370(3) 0
B1371(20) 1
B1372(3) 0
B1373(20) 0
B1374(3) 1
B1375(6) 0
B1376(3) 1
B1377(3) 0
B1378(3) 0
B1379(8) 1
B1380(3) 0
B1381(3) 0
B1382(3) 0
B1383(18) 1
B1384(3) 0
B1385(16) 0
B1386(3) 1
B1387(16) 0
B1388(3) 1
B1389(652) 0
B1390(16) 0
B1391(3) 1
B1392(16) 0
B1393(3) 1
B1394(34) 0
B1395(3) 1
B1396(16) 0
B1397(3) 1
B1398(16) 0
B1399(3) 1
B1400(18) 0
B1401(14) 0
B1402(3) 1
B1403(16) 1
B1404(3) 0
B1405(16) 1
B1406(3) 0
B1407(3) 1
B1408(16) 1
B1409(3) 0
B1410(16) 1
B1411(3) 0
B1412(18) 0
B1413(14) 0
B1414(3) 1
B1415(16) 0
B1416(3) 1
B1417(16) 0
B1418(3) 1
B1419(3) 1
B1420(16) 0
B1421(3) 1
B1422(16) 0
B1423(3) 1
B1424(18) 0
B1425(14) 0
B1426(3) 1
B1427(3) 0
B1428(3) 0
B1429(8) 1
B1430(3) 0
B1431(3) 0
B1432(3) 0
B1433(18) 1
B1434(3) 0
B1435(16) 1
B1436(3) 0
B1437(3) 0
B1438(16) 1
B1439(3) 0
B1440(16) 1
B1441(3) 0
B1442(14) 0
B1443(3) 0
B1444(3) 1
B1445(16) 1
B1446(3) 0
B1447(16) 0
B1448(3) 1
B1449(18) 0
B1450(14) 0
B1451(3) 1
B1452(3) 0
B1453(3) 0
B1454(18) 1
B1455(3) 0
B1456(16) 0
B1457(3) 1
B1458(18) 0
B1459(14) 0
B1460(3) 1
B1461(18) 0
B1462(14) 0
B1463(3) 1
B1464(26) 0
B1465(3) 0
B1466(8) 1
B1467(3) 0
B1468(8) 1
B1469(3) 0
B1470(8) 0
B1471(3) 0
B1472(14) 0
B1473(3) 1
B1474(12) 0
B1475(3) 1
B1476(3) 1
B1477(12) 0
B1478(3) 1
B1479(3) 1
B1480(12) 0
B1481(3) 1
B1482(12) 0
B1483(3) 1
B1484(3) 0
B1485(3) 0
B1486(14) 1
B1487(3) 0
B1488(3) 0
B1489(14) 1
B1490(3) 0
B1491(14) 1
B1492(3) 0
B1493(3) 1
B1494(12) 0
B1495(3) 1
B1496(3) 1
B1497(12) 0
B1498(3) 1
B1499(12) 0
B1500(3) 1
B1501(8) 1
B1502(3) 0
B1503(8) 0
B1504(3) 0
B1505(3) 0
B1506(8) 0
B1507(3) 1
B1508(3) 0
B1509(3) 0
B1510(3) 1
B1511(12) 0
B1512(3) 0
B1513(12) 0
B1514(3) 1
B1515(3) 0
B1516(3) 0
B1517(12) 0
B1518(3) 1
B1519(186) 0
B1520(3) 1
B1521(14) 0
B1522(3) 0
B1523(18) 1
B1524(3) 0
B1525(16) 1
B1526(3) 0
B1527(18) 1
B1528(3) 0
B1529(16) 1
B1530(16) 1
B1531(3) 0
B1532(3) 1
B1533(14) 0
B1534(3) 1
B1535(18) 0
B1536(3) 1
B1537(18) 0
B1538(3) 1
B1539(18) 0
B1540(3) 1
B1541(18) 0
B1542(3) 1
B1543(18) 0
B1544(3) 1
B1545(3) 0
B1546(3) 0
B1547(3) 0
B1548(3) 0
B1549(3) 0
B1550(3) 0
B1551(18) 0
B1552(3) 1
B1553(18) 0
B1554(3) 1
B1555(18) 0
B1556(3) 1
B1557(18) 0
B1558(3) 1
B1559(18) 0
B1560(3) 1
B1561(18) 1
B1562(3) 0
B1563(16) 1
B1564(3) 0
B1565(18) 1
B1566(3) 0
B1567(16) 1
B1568(3) 0
B1569(16) 1
B1570(18) 1
B1571(3) 0
B1572(18) 1
B1573(3) 0
B1574(18) 1
B1575(3) 0
B1576(18) 0
B1577(3) 0
B1578(18) 0
B1579(3) 1
B1580(18) 0
B1581(3) 1
B1582(18) 0
B1583(3) 1
B1584(18) 0
B1585(3) 0
B1586(18) 0
B1587(3) 0
B1588(18) 0
B1589(3) 1
B1590(12) 0
B1591(3) 1.0000000000000002e+00
B1592(10) 0
B1593(3) 1
B1594(12) 1
B1595(3) 0
B1596(12) 0
B1597(3) 0
B1598(3) 0
B1599(8) 0
B1600(3) 1
B1601(3) 1
B1602(8) 0
B1603(3) 1
B1604(3) 1
B1605(8) 0
B1606(3) 1
B1607(8) 0
B1608(3) 1
B1609(12) 1
B1610(3) 0
B1611(12) 1
B1612(3) 0
B1613(12) 1
B1614(3) 0
B1615(26) 0
B1616(3) 1
B1617(10) 0
B1618(3) 1
B1619(3) 1
B1620(10) 0
B1621(3) 1
B1622(10) 0
B1623(3) 1
B1624(12) 1
B1625(3) 0
B1626(12) 0
B1627(3) 0
B1628(3) 0
B1629(3) 0
B1630(12) 0
B1631(3) 0
B1632(3) 0
B1633(3) 0
B1634(26) 0
B1635(3) 1
B1636(10) 0
B1637(3) 1
B1638(10) 0
B1639(3) 1
B1640(3) 0
B1641(3) 0
B1642(10) 1
B1643(3) 0
B1644(10) 0
B1645(3) 1
B1646(10) 0
B1647(3) 1
B1648(10) 1
B1649(3) 0
B1650(3) 0
B1651(10) 1
B1652(3) 0
B1653(3) 0
B1654(3) 0
B1655(10) 0
B1656(3) 0
B1657(10) 1
B1658(3) 0
B1659(3) 0
B1660(10) 1
B1661(3) 0
B1662(3) 0
B1663(3) 0
B1664(3) 1
B1665(10) 0
B1666(3) 1
B1667(3) 1
B1668(10) 0
B1669(3) 1
B1670(8) 0
B1671(3) 1
B1672(10) 1
B1673(3) 0
B1674(3) 0
B1675(10) 1
B1676(3) 0
B1677(3) 0
B1678(26) 1
B1679(3) 0
B1680(10) 1
B1681(3) 0
B1682(26) 1
B1683(3) 0
B1684(3) 0
B1685(3) 1
B1686(10) 1
B1687(3) 0
B1688(10) 1
B1689(3) 0
B1690(3) 0
B1691(3) 0
B1692(10) 1
B1693(3) 0
B1694(16) 1
B1695(3) 0
B1696(16) 0
B1697(3) 1
B1698(16) 1
B1699(3) 0
B1700(18) 1
B1701(3) 0
B1702(18) 0
B1703(3) 0
B1704(18) 1
B1705(3) 0
B1706(16) 1
B1707(3) 0
B1708(16) 0
B1709(3) 1
B1710(16) 1
B1711(3) 0
B1712(18) 1
B1713(3) 0
B1714(18) 0
B1715(3) 0
B1716(18) 1
B1717(3) 0
B1718(16) 1
B1719(3) 0
B1720(16) 0
B1721(3) 1
B1722(18) 0
B1723(3) 1
B1724(18) 0
B1725(3) 1
B1726(18) 0
B1727(3) 1
B1728(18) 0
B1729(3) 1
B1730(16) 1
B1731(3) 0
B1732(18) 1
B1733(3) 0
B1734(18) 0
B1735(3) 0
B1736(18) 1
B1737(3) 0
B1738(16) 1
B1739(3) 0
B1740(16) 0
B1741(3) 0
B1742(16) 0
B1743(3) 0
B1744(16) 0
B1745(3) 0
B1746(16) 0
B1747(3) 0
B1748(18) 0
B1749(3) 1
B1750(18) 1
B1751(3) 0
B1752(18) 0
B1753(3) 0
B1754(18) 1
B1755(3) 0
B1756(18) 1
B1757(3) 0
B1758(18) 0
B1759(3) 0
B1760(10) 0
B1761(3) 0
B1762(10) 0
B1763(3) 1
B1764(12) 1
B1765(3) 0
B1766(12) 0
B1767(3) 1
B1768(3) 0
B1769(10) 1
B1770(3) 0
B1771(12) 1
B1772(3) 0
B1773(12) 0
B1774(3) 1
B1775(3) 0
B1776(20) 0
B1777(3) 1
B1778(20) 0
B1779(3) 1
B1780(6) 0
B1781(3) 1
B1782(6) 0
B1783(3) 1
B1784(12) 1
B1785(3) 0
B1786(12) 0
B1787(3) 1
B1788(3) 0
B1789(12) 0
B1790(3) 1
B1791(3) 0
B1792(3) 0
B1793(3) 0
B1794(3) 0
B1795(6) 0
B1796(3) 1
B1797(6) 0
B1798(3) 1
B1799(18) 0
B1800(3) 1
B1801(6) 0
B1802(3) 0
B1803(3) 1
B1804(3) 0
B1805(6) 1
B1806(3) 0
B1807(3) 1
B1808(3) 1
B1809(12) 0
B1810(3) 1
B1811(10) 0
B1812(3) 1
B1813(10) 0
B1814(3) 1
B1815(3) 0
B1816(12) 0
B1817(3) 1
B1818(10) 1
B1819(3) 0
B1820(10) 1
B1821(3) 0
B1822(20) 0
B1823(3) 1
B1824(3) 0
B1825(3) 0
B1826(12) 1
B1827(3) 0
B1828(12) 1
B1829(3) 0
B1830(10) 0
B1831(3) 1
B1832(10) 1
B1833(3) 0
B1834(10) 1
B1835(3) 0
B1836(12) 1
B1837(3) 0
B1838(12) 0
B1839(3) 1
B1840(10) 0
B1841(3) 1
B1842(12) 1
B1843(3) 0
B1844(12) 0
B1845(3) 1
B1846(20) 0
B1847(3) 1
B1848(20) 0
B1849(3) 1
B1850(6) 0
B1851(3) 1
B1852(6) 0
B1853(3) 1
B1854(12) 1
B1855(3) 0
B1856(12) 0
B1857(3) 1
B1858(12) 0
B1859(3) 1
B1860(3) 0
B1861(3) 0
B1862(3) 0
B1863(3) 0
B1864(6) 0
B1865(3) 1
B1866(3) 0
B1867(3) 0
B1868(14) 0
B1869(3) 0
B1870(14) 0
B1871(3) 1
B1872(12) 1
B1873(3) 0
B1874(12) 1
B1875(3) 0
B1876(4) 1
B1877(3) 0
B1878(18) 1
B1879(3) 0
B1880(18) 0
B1881(3) 1
B1882(14) 0
B1883(3) 1
B1884(14) 0
B1885(3) 1
B1886(12) 0
B1887(3) 1
B1888(12) 0
B1889(3) 1
B1890(3) 0
B1891(3) 1
B1892(14) 0
B1893(3) 1
B1894(14) 9.9999999999999967e-01
B1895(3) 0
B1896(14) 9.9999999999999967e-01
B1897(3) 0
B1898(14) 1
B1899(3) 0
B1900(14) 1
B1901(3) 0
B1902(12) 1
B1903(3) 0
B1904(10) 0
B1905(3) 1
B1906(12) 1
B1907(3) 0
B1908(12) 0
B1909(3) 1
B1910(10) 0
B1911(3) 0
B1912(12) 1
B1913(3) 0
B1914(12) 0
B1915(3) 1
B1916(20) 0
B1917(3) 1
B1918(20) 0
B1919(3) 1
B1920(6) 0
B1921(3) 1
B1922(6) 0
B1923(3) 1
B1924(12) 1
B1925(3) 0
B1926(12) 0
B1927(3) 1
B1928(12) 0
B1929(3) 1
B1930(3) 0
B1931(3) 0
B1932(3) 0
B1933(3) 0
B1934(6) 1
B1935(3) 0
B1936(10) 0
B1937(3) 1
B1938(10) 0
B1939(3) 0
B1940(8) 0
B1941(3) 1
B1942(10) 0
B1943(3) 1
B1944(10) 1
B1945(3) 0
B1946(8) 0
B1947(3) 1
B1948(3) 1
B1949(3) 1
B1950(6) 0
B1951(3) 1
B1952(6) 0
B1953(3) 1
B1954(10) 1
B1955(3) 0
B1956(8) 0
B1957(3) 1
B1958(8) 0
B1959(3) 1
B1960(3) 0
B1961(3) 0
B1962(3) 0
B1963(3) 0
B1964(6) 1
B1965(3) 0
B1966(8) 0
B1967(3) 1
B1968(10) 0
B1969(3) 1
B1970(8) 0
B1971(3) 1
B1972(10) 0
B1973(3) 0
B1974(18) 0
B1975(3) 1
B1976(6) 0
B1977(3) 1
B1978(6) 0
B1979(3) 1
B1980(10) 1
B1981(3) 0
B1982(3) 0
B1983(3) 0
B1984(6) 1
B1985(3) 0
B1986(8) 0
B1987(3) 1
B1988(8) 1
B1989(3) 0
B1990(8) 0
B1991(3) 1
B1992(8) 1
B1993(3) 0
B1994(3) 1
B1995(6) 0
B1996(3) 1
B1997(6) 0
B1998(3) 1
B1999(8) 1
B2000(3) 0
B2001(3) 0
B2002(3) 0
B2003(6) 1
B2004(3) 0
B2005(3) 1
B2006(16) 1
B2007(3) 0
B2008(16) 1
B2009(3) 0
B2010(16) 1
B2011(3) 0
B2012(4) 1
B2013(3) 0
B2014(3) 0
B2015(3) 0
B2016(12) 0
B2017(3) 1
B2018(12) 0
B2019(3) 1
B2020(12) 0
B2021(3) 1
B2022(12) 0
B2023(3) 1
B2024(12) 1
B2025(3) 0
B2026(12) 1
B2027(3) 0
B2028(12) 1
B2029(3) 0
B2030(12) 0
B2031(3) 0
B2032(12) 1
B2033(3) 0
B2034(12) 1
B2035(3) 0
B2036(68) 0
B2037(5) 0
B2038(3) 0
B2039(3) 0
B2040(3) 0
B2041(12) 1
B2042(3) 0
B2043(12) 0
B2044(3) 1
B2045(12) 0
B2046(3) 0
B2047(12) 0
B2048(3) 0
B2049(12) 1
B2050(3) 0
B2051(12) 0
B2052(3) 1
B2053(12) 0
B2054(3) 1
B2055(12) 0
B2056(3) 1
B2057(12) 0
B2058(3) 1
B2059(12) 1
B2060(3) 0
B2061(12) 1
B2062(3) 0
B2063(12) 1
B2064(3) 0
B2065(12) 0
B2066(3) 1
B2067(12) 1
B2068(3) 0
B2069(12) 1
B2070(3) 0
B2071(3) 1
B2072(6) 0
B2073(3) 1
B2074(3) 1
B2075(3) 1
B2076(6) 0
B2077(3) 1
B2078(6) 0
B2079(3) 1
B2080(3) 0
B2081(8) 0
B2082(3) 1
B2083(8) 1
B2084(3) 0
B2085(3) 0
B2086(18) 1
B2087(3) 0
B2088(3) 1
B2089(18) 0
B2090(3) 1
B2091(8) 0
B2092(3) 1
B2093(8) 0
B2094(3) 1
B2095(8) 1
B2096(3) 0
B2097(3) 0
B2098(3) 0
B2099(3) 0
B2100(3) 0
B2101(8) 0
B2102(3) 0
B2103(8) 1
B2104(3) 0
B2105(62) 0
B2106(3) 1
B2107(18) 0
B2108(3) 0
B2109(8) 1
B2110(3) 0
B2111(8) 1
B2112(3) 0
B2113(3) 1
B2114(8) 0
B2115(3) 1
B2116(8) 0
B2117(3) 1
B2118(6) 1
B2119(3) 0
B2120(3) 0
B2121(3) 0
B2122(8) 0
B2123(3) 1
B2124(12) 1
B2125(3) 0
B2126(12) 0
B2127(3) 1
B2128(12) 0
B2129(3) 1
B2130(12) 1
B2131(3) 0
B2132(12) 1
B2133(3) 0
B2134(12) 0
B2135(3) 1
B2136(12) 0
B2137(3) 1
B2138(12) 0
B2139(3) 1
B2140(12) 1
B2141(3) 0
B2142(12) 1
B2143(3) 0
B2144(12) 1
B2145(3) 0
B2146(12) 1
B2147(3) 0
B2148(12) 1
B2149(3) 0
B2150(12) 0
B2151(3) 1
B2152(12) 1
B2153(3) 0
B2154(12) 0
B2155(3) 1
B2156(12) 0
B2157(3) 1
B2158(12) 1
B2159(3) 0
B2160(12) 1
B2161(3) 0
B2162(12) 0
B2163(3) 1
B2164(12) 0
B2165(3) 1
B2166(12) 0
B2167(3) 1
B2168(12) 1
B2169(3) 0
B2170(12) 1
B2171(3) 0
B2172(12) 1
B2173(3) 0
B2174(12) 1
B2175(3) 0
B2176(12) 1
B2177(3) 0
B2178(12) 0
B2179(3) 1
B2180(12) 1
B2181(3) 0
B2182(12) 0
B2183(3) 1
B2184(12) 0
B2185(3) 1
B2186(12) 1
B2187(3) 0
B2188(12) 1
B2189(3) 0
B2190(12) 0
B2191(3) 1
B2192(12) 0
B2193(3) 1
B2194(12) 0
B2195(3) 1
B2196(12) 1
B2197(3) 0
B2198(12) 1
B2199(3) 0
B2200(12) 1
B2201(3) 0
B2202(12) 1
B2203(3) 0
B2204(12) 1
B2205(3) 0
B2206(12) 0
B2207(3) 1
B2208(12) 1
B2209(3) 0
B2210(12) 0
B2211(3) 1
B2212(12) 0
B2213(3) 1
B2214(12) 1
B2215(3) 0
B2216(12) 1
B2217(3) 0
B2218(12) 0
B2219(3) 1
B2220(12) 0
B2221(3) 1
B2222(12) 0
B2223(3) 1
B2224(12) 1
B2225(3) 0
B2226(12) 1
B2227(3) 0
B2228(12) 1
B2229(3) 0
B2230(12) 1
B2231(3) 0
B2232(12) 1
B2233(3) 0
B2234(12) 0
B2235(3) 1
B2236(10) 1
B2237(3) 0
B2238(10) 0
B2239(3) 1
B2240(10) 0
B2241(3) 1
B2242(10) 1
B2243(3) 0
B2244(10) 1
B2245(3) 0
B2246(10) 0
B2247(3) 1
B2248(10) 0
B2249(3) 1
B2250(10) 0
B2251(3) 1
B2252(10) 1
B2253(3) 0
B2254(10) 1
B2255(3) 0
B2256(10) 1
B2257(3) 0
B2258(10) 1
B2259(3) 0
B2260(10) 1
B2261(3) 0
B2262(10) 0
B2263(3) 1
B2264(12) 0
B2265(12) 0
B2266(12) 0
B2267(12) 0
B2268(12) 0
B2269(12) 0
B2270(12) 0
B2271(18) 1
B2272(18) 0
B2273(18) 1
B2274(18) 0
B2275(18) 1
B2276(18) 0
B2277(18) 0
B2278(18) 0
B2279(18) 0
B2280(18) 0
B2281(7) 0
B2282(7) 1
B2283(1) 0
B2284(1) 0
